53
33 43 80
43 22 236
22 19 94
19 49 35
49 15 130
15 45 156
45 24 173
24 11 245
11 50 188
50 10 285
10 51 399
51 13 319
13 12 206
12 26 185
26 27 110
27 25 159
25 46 186
46 28 523
28 29 260
29 52 480
52 1 187
1 6 45
6 41 76
41 20 290
20 16 253
16 2 217
2 17 135
17 30 80
30 21 104
21 48 94
48 31 50
31 44 151
44 18 75
18 40 92
40 7 64
7 8 183
8 9 83
9 32 501
32 42 365
42 3 245
3 5 70
5 14 40
14 4 25
4 23 32
23 47 16
47 37 49
37 36 43
36 39 41
39 38 43
38 35 43
35 34 15
34 33 21

